# Solution for model obj
# Objective value = 37868.147953
z 37868.147953
X_1_1 1
X_1_2 0
X_1_3 0
X_1_4 0
X_1_5 0
X_1_6 0
X_1_7 0
X_1_8 0
X_1_9 0
X_1_10 0
X_1_11 0
X_1_12 0
X_1_13 0
X_1_14 0
X_1_15 0
X_1_16 0
X_1_17 0
X_1_18 0
X_1_19 0
X_1_20 0
X_2_1 0
X_2_2 1
X_2_3 0
X_2_4 0
X_2_5 0
X_2_6 0
X_2_7 0
X_2_8 0
X_2_9 0
X_2_10 0
X_2_11 0
X_2_12 0
X_2_13 0
X_2_14 0
X_2_15 0
X_2_16 0
X_2_17 0
X_2_18 0
X_2_19 0
X_2_20 0
X_3_1 0
X_3_2 0
X_3_3 1
X_3_4 0
X_3_5 0
X_3_6 0
X_3_7 0
X_3_8 0
X_3_9 0
X_3_10 0
X_3_11 0
X_3_12 0
X_3_13 0
X_3_14 0
X_3_15 0
X_3_16 0
X_3_17 0
X_3_18 0
X_3_19 0
X_3_20 0
X_4_1 0
X_4_2 0
X_4_3 0
X_4_4 1
X_4_5 0
X_4_6 0
X_4_7 0
X_4_8 0
X_4_9 0
X_4_10 0
X_4_11 0
X_4_12 0
X_4_13 0
X_4_14 0
X_4_15 0
X_4_16 0
X_4_17 0
X_4_18 0
X_4_19 0
X_4_20 0
X_5_1 0
X_5_2 0
X_5_3 0
X_5_4 0
X_5_5 0
X_5_6 1
X_5_7 0
X_5_8 0
X_5_9 0
X_5_10 0
X_5_11 0
X_5_12 0
X_5_13 0
X_5_14 0
X_5_15 0
X_5_16 0
X_5_17 0
X_5_18 0
X_5_19 0
X_5_20 0
X_6_1 0
X_6_2 0
X_6_3 0
X_6_4 0
X_6_5 0
X_6_6 1
X_6_7 0
X_6_8 0
X_6_9 0
X_6_10 0
X_6_11 0
X_6_12 0
X_6_13 0
X_6_14 0
X_6_15 0
X_6_16 0
X_6_17 0
X_6_18 0
X_6_19 0
X_6_20 0
X_7_1 0
X_7_2 0
X_7_3 0
X_7_4 0
X_7_5 0
X_7_6 1
X_7_7 0
X_7_8 0
X_7_9 0
X_7_10 0
X_7_11 0
X_7_12 0
X_7_13 0
X_7_14 0
X_7_15 0
X_7_16 0
X_7_17 0
X_7_18 0
X_7_19 0
X_7_20 0
X_8_1 0
X_8_2 0
X_8_3 0
X_8_4 0
X_8_5 0
X_8_6 0
X_8_7 0
X_8_8 1
X_8_9 0
X_8_10 0
X_8_11 0
X_8_12 0
X_8_13 0
X_8_14 0
X_8_15 0
X_8_16 0
X_8_17 0
X_8_18 0
X_8_19 0
X_8_20 0
X_9_1 0
X_9_2 0
X_9_3 0
X_9_4 0
X_9_5 0
X_9_6 0
X_9_7 0
X_9_8 0
X_9_9 0
X_9_10 0
X_9_11 0
X_9_12 0
X_9_13 1
X_9_14 0
X_9_15 0
X_9_16 0
X_9_17 0
X_9_18 0
X_9_19 0
X_9_20 0
X_10_1 0
X_10_2 0
X_10_3 0
X_10_4 0
X_10_5 0
X_10_6 1
X_10_7 0
X_10_8 0
X_10_9 0
X_10_10 0
X_10_11 0
X_10_12 0
X_10_13 0
X_10_14 0
X_10_15 0
X_10_16 0
X_10_17 0
X_10_18 0
X_10_19 0
X_10_20 0
X_11_1 0
X_11_2 0
X_11_3 0
X_11_4 0
X_11_5 0
X_11_6 0
X_11_7 0
X_11_8 0
X_11_9 0
X_11_10 0
X_11_11 0
X_11_12 0
X_11_13 0
X_11_14 0
X_11_15 0
X_11_16 1
X_11_17 0
X_11_18 0
X_11_19 0
X_11_20 0
X_12_1 0
X_12_2 0
X_12_3 0
X_12_4 0
X_12_5 0
X_12_6 0
X_12_7 0
X_12_8 0
X_12_9 0
X_12_10 0
X_12_11 0
X_12_12 0
X_12_13 0
X_12_14 0
X_12_15 0
X_12_16 1
X_12_17 0
X_12_18 0
X_12_19 0
X_12_20 0
X_13_1 0
X_13_2 0
X_13_3 0
X_13_4 0
X_13_5 0
X_13_6 0
X_13_7 0
X_13_8 0
X_13_9 0
X_13_10 0
X_13_11 0
X_13_12 0
X_13_13 1
X_13_14 0
X_13_15 0
X_13_16 0
X_13_17 0
X_13_18 0
X_13_19 0
X_13_20 0
X_14_1 0
X_14_2 0
X_14_3 0
X_14_4 0
X_14_5 0
X_14_6 0
X_14_7 0
X_14_8 0
X_14_9 0
X_14_10 0
X_14_11 0
X_14_12 0
X_14_13 0
X_14_14 0
X_14_15 0
X_14_16 0
X_14_17 0
X_14_18 0
X_14_19 1
X_14_20 0
X_15_1 0
X_15_2 0
X_15_3 0
X_15_4 0
X_15_5 0
X_15_6 0
X_15_7 0
X_15_8 0
X_15_9 0
X_15_10 0
X_15_11 0
X_15_12 0
X_15_13 0
X_15_14 0
X_15_15 0
X_15_16 0
X_15_17 0
X_15_18 0
X_15_19 1
X_15_20 0
X_16_1 0
X_16_2 0
X_16_3 0
X_16_4 0
X_16_5 0
X_16_6 0
X_16_7 0
X_16_8 0
X_16_9 0
X_16_10 0
X_16_11 0
X_16_12 0
X_16_13 0
X_16_14 0
X_16_15 0
X_16_16 1
X_16_17 0
X_16_18 0
X_16_19 0
X_16_20 0
X_17_1 0
X_17_2 0
X_17_3 0
X_17_4 0
X_17_5 0
X_17_6 0
X_17_7 0
X_17_8 0
X_17_9 0
X_17_10 0
X_17_11 0
X_17_12 0
X_17_13 0
X_17_14 0
X_17_15 0
X_17_16 0
X_17_17 1
X_17_18 0
X_17_19 0
X_17_20 0
X_18_1 0
X_18_2 0
X_18_3 0
X_18_4 0
X_18_5 0
X_18_6 0
X_18_7 0
X_18_8 0
X_18_9 0
X_18_10 0
X_18_11 0
X_18_12 0
X_18_13 1
X_18_14 0
X_18_15 0
X_18_16 0
X_18_17 0
X_18_18 0
X_18_19 0
X_18_20 0
X_19_1 0
X_19_2 0
X_19_3 0
X_19_4 0
X_19_5 0
X_19_6 0
X_19_7 0
X_19_8 0
X_19_9 0
X_19_10 0
X_19_11 0
X_19_12 0
X_19_13 0
X_19_14 0
X_19_15 0
X_19_16 0
X_19_17 0
X_19_18 0
X_19_19 1
X_19_20 0
X_20_1 0
X_20_2 0
X_20_3 0
X_20_4 0
X_20_5 0
X_20_6 0
X_20_7 0
X_20_8 0
X_20_9 0
X_20_10 0
X_20_11 0
X_20_12 0
X_20_13 0
X_20_14 0
X_20_15 0
X_20_16 0
X_20_17 0
X_20_18 0
X_20_19 1
X_20_20 0
r_1 0
r_2 0
r_3 0
r_4 0
r_5 4.5167596950562074e+02
r_6 13088.72187
r_7 4.9951635739999110e+03
r_8 0
r_9 1.4091063245056102e+03
r_10 3.1876734799999140e+03
r_11 0
r_12 0
r_13 7511.775061
r_14 0
r_15 0
r_16 9424.339944
r_17 0
r_18 0
r_19 4421.233157
r_20 0
r_0 0
